c description: Random 3-CNF over 15 variables and 69 clauses
c generator: CNFgen (0.9.0)
c copyright: (C) 2012-2020 Massimo Lauria <massimo.lauria@uniroma1.it>
c url: https://massimolauria.net/cnfgen
c command line: cnfgen -o 3SAT_n_15_m_69 randkcnf 3 15 69
c
p cnf 15 69
3 6 7 0
-4 -7 9 0
-4 10 -12 0
-2 10 14 0
8 10 -14 0
-3 -9 11 0
8 12 15 0
4 10 -15 0
2 -5 14 0
3 11 -15 0
-3 -6 8 0
4 11 -15 0
-3 14 -15 0
7 -8 11 0
-3 -6 13 0
-1 5 -12 0
-7 12 13 0
1 4 5 0
6 -13 -15 0
-1 3 -13 0
-8 11 15 0
-7 -13 -15 0
3 9 11 0
-5 -10 15 0
-3 11 -15 0
-1 -4 -8 0
2 -10 -15 0
9 10 -11 0
2 3 -15 0
4 12 13 0
4 -10 11 0
-4 11 13 0
1 2 -5 0
11 -12 13 0
-1 10 -14 0
1 11 13 0
4 6 -11 0
3 -5 -14 0
-1 7 -14 0
-4 12 14 0
3 -9 14 0
-3 -11 15 0
-4 -8 -9 0
-2 6 -15 0
2 -5 11 0
1 -4 -6 0
-4 -7 -14 0
-2 7 11 0
1 -4 -11 0
-3 12 -15 0
-5 -8 -9 0
-3 -4 -14 0
-1 6 -12 0
-3 -6 11 0
6 -9 15 0
-4 -7 15 0
-9 11 15 0
1 -5 -11 0
2 3 13 0
-2 3 6 0
4 5 13 0
-4 -7 10 0
-10 -11 -15 0
-4 -7 13 0
-2 10 -13 0
-6 7 12 0
-4 -11 12 0
1 -9 14 0
4 -9 -10 0